(declare-fun x_ack!36 () (_ BitVec 64))
(declare-fun FPCHECK_FSUB_UNDERFLOW ((_ BitVec 64) (_ BitVec 64)) Bool)
(declare-fun a_ack!35 () (_ BitVec 64))
(assert (not (fp.eq ((_ to_fp 11 53) x_ack!36) ((_ to_fp 11 53) #x3ff0000000000000))))
(assert (not (fp.eq ((_ to_fp 11 53) x_ack!36) ((_ to_fp 11 53) #x0000000000000000))))
(assert (not (fp.lt ((_ to_fp 11 53) x_ack!36) ((_ to_fp 11 53) #x3fa999999999999a))))
(assert (fp.gt ((_ to_fp 11 53) x_ack!36) ((_ to_fp 11 53) #x3fee666666666666)))
(assert (FPCHECK_FSUB_UNDERFLOW a_ack!35 #x3ff0000000000000))

(check-sat)
(exit)
